8980
10202
9708
9456
9290
9317
10200
9504
9192
9112
10072
9461
9553
10258
9323
9498
9771
8995
9220
9252
10298
8920
8848
9098
9334
9897
9395
9304
9357
8864
8953
9091
10290
9137
9161
9156
9013
8206
9214
8181
9573
8864
10093
9073
9790
9257
9583
9067
9123
9251
9765
10010
